<number of tasks>
50

<cycle time>
1000

<order strength>
0.896


<task times>
1 595
2 36
3 204
4 242
5 224
6 129
7 120
8 215
9 137
10 90
11 225
12 151
13 54
14 136
15 239
16 34
17 180
18 333
19 440
20 207
21 291
22 41
23 65
24 181
25 133
26 474
27 328
28 102
29 117
30 203
31 433
32 174
33 122
34 104
35 67
36 323
37 22
38 535
39 232
40 290
41 253
42 342
43 28
44 44
45 89
46 209
47 254
48 449
49 145
50 78

<precedence relations>
1,5
2,4
3,5
4,6
4,7
4,8
5,6
5,7
5,8
6,9
6,10
6,11
7,9
7,10
7,11
8,9
8,10
8,11
9,12
9,13
9,14
10,12
10,13
10,14
11,12
11,13
11,14
12,15
12,16
12,17
12,18
13,15
13,16
13,17
13,18
14,15
14,16
14,17
14,18
15,19
15,20
15,21
16,19
16,20
16,21
17,19
17,20
17,21
18,19
18,20
18,21
19,22
19,25
19,27
19,28
20,22
20,23
20,24
21,22
21,23
21,24
22,46
22,47
23,25
23,26
23,27
24,28
24,30
25,29
25,30
25,31
26,29
26,30
26,31
27,29
27,30
27,31
28,29
28,31
28,34
29,32
29,33
29,35
30,34
31,32
31,35
32,36
32,38
33,36
33,40
33,42
34,37
34,39
35,36
35,37
36,39
36,43
36,44
37,38
37,40
38,41
38,42
38,43
39,45
40,43
41,48
42,44
43,46
44,45
44,46
45,47
46,50
47,48
47,49
47,50

<end>
